p wcnf 144 288 289 
1 -13 47 0 
1 89 118 0 
1 -124 24 0 
1 -118 65 0 
1 -76 113 0 
1 -38 -37 0 
1 24 131 0 
1 -117 99 0 
1 100 33 0 
1 -23 9 0 
1 -57 -98 0 
1 98 -82 0 
1 -77 51 0 
1 -91 -137 0 
1 -84 -23 0 
1 142 12 0 
1 36 -86 0 
1 70 119 0 
1 83 63 0 
1 -133 79 0 
1 52 -64 0 
1 141 95 0 
1 -118 -13 0 
1 -96 14 0 
1 -7 -64 0 
1 54 -113 0 
1 26 92 0 
1 -126 -67 0 
1 -6 73 0 
1 106 -72 0 
1 37 -3 0 
1 139 143 0 
1 -33 135 0 
1 51 24 0 
1 63 120 0 
1 -71 -29 0 
1 -128 -139 0 
1 -108 -46 0 
1 117 -140 0 
1 -59 -31 0 
1 35 -82 0 
1 -81 48 0 
1 140 -58 0 
1 15 -26 0 
1 -85 -4 0 
1 -92 -4 0 
1 124 10 0 
1 -134 9 0 
1 48 77 0 
1 90 -41 0 
1 64 -110 0 
1 49 132 0 
1 -64 -113 0 
1 25 126 0 
1 33 50 0 
1 16 -129 0 
1 8 -7 0 
1 96 133 0 
1 -134 -17 0 
1 -56 -68 0 
1 58 20 0 
1 21 -80 0 
1 -61 130 0 
1 52 4 0 
1 -3 -45 0 
1 49 -75 0 
1 -90 128 0 
1 49 -8 0 
1 -130 113 0 
1 -72 6 0 
1 -47 -97 0 
1 25 65 0 
1 74 -20 0 
1 45 -92 0 
1 -49 65 0 
1 -135 -109 0 
1 -94 -127 0 
1 -82 29 0 
1 66 -7 0 
1 131 -110 0 
1 30 -85 0 
1 -80 -44 0 
1 -31 10 0 
1 -82 -10 0 
1 -139 -128 0 
1 -37 51 0 
1 -1 36 0 
1 -29 -122 0 
1 44 -97 0 
1 -31 -8 0 
1 127 69 0 
1 -76 -44 0 
1 8 -89 0 
1 114 -59 0 
1 84 7 0 
1 -71 17 0 
1 -52 -85 0 
1 -50 79 0 
1 38 -11 0 
1 -126 96 0 
1 -22 -118 0 
1 -117 -11 0 
1 16 107 0 
1 39 142 0 
1 63 86 0 
1 -7 -16 0 
1 -63 92 0 
1 137 -118 0 
1 -89 104 0 
1 127 27 0 
1 -99 116 0 
1 -24 39 0 
1 -9 -91 0 
1 -104 -110 0 
1 7 59 0 
1 -79 48 0 
1 -104 81 0 
1 -59 -133 0 
1 -37 -50 0 
1 61 -24 0 
1 -35 106 0 
1 -136 69 0 
1 -104 -36 0 
1 92 -81 0 
1 -70 -64 0 
1 -82 140 0 
1 128 53 0 
1 95 30 0 
1 32 -26 0 
1 113 -98 0 
1 128 31 0 
1 -91 -7 0 
1 27 50 0 
1 -117 -105 0 
1 91 -9 0 
1 61 -71 0 
1 129 144 0 
1 -40 15 0 
1 87 -100 0 
1 55 26 0 
1 -75 31 0 
1 -94 -125 0 
1 36 66 0 
1 -115 -8 0 
1 57 -92 0 
1 135 37 0 
1 -85 -112 0 
1 -105 -121 0 
1 -7 108 0 
1 121 -139 0 
1 123 -7 0 
1 75 16 0 
1 80 45 0 
1 -109 -6 0 
1 121 -9 0 
1 -59 -56 0 
1 -140 -32 0 
1 122 72 0 
1 -107 -43 0 
1 21 31 0 
1 -104 142 0 
1 76 -138 0 
1 69 -94 0 
1 -59 16 0 
1 -120 -16 0 
1 114 -118 0 
1 -86 -128 0 
1 -1 -117 0 
1 -59 -27 0 
1 -134 -2 0 
1 -51 -3 0 
1 -4 55 0 
1 74 -77 0 
1 -45 -30 0 
1 44 -84 0 
1 27 4 0 
1 133 -47 0 
1 108 143 0 
1 -118 -124 0 
1 -103 -77 0 
1 -124 -26 0 
1 -89 -25 0 
1 67 -139 0 
1 -93 -41 0 
1 -134 -78 0 
1 44 80 0 
1 -53 -20 0 
1 36 115 0 
1 35 -74 0 
1 -70 119 0 
1 106 107 0 
1 40 77 0 
1 -137 67 0 
1 44 -51 0 
1 -10 -38 0 
1 123 -107 0 
1 -112 -128 0 
1 43 -58 0 
1 106 76 0 
1 -5 83 0 
1 75 -31 0 
1 81 -111 0 
1 15 16 0 
1 14 -95 0 
1 -63 -45 0 
1 77 -70 0 
1 -119 8 0 
1 -35 133 0 
1 71 -24 0 
1 92 -3 0 
1 11 -66 0 
1 -38 117 0 
1 -29 83 0 
1 -112 31 0 
1 -107 97 0 
1 34 20 0 
1 -116 -123 0 
1 31 -141 0 
1 55 -104 0 
1 -7 8 0 
1 137 -122 0 
1 -14 15 0 
1 -141 -55 0 
1 -5 -115 0 
1 74 -137 0 
1 -106 -74 0 
1 -63 -72 0 
1 127 -130 0 
1 -9 120 0 
1 -119 103 0 
1 25 -38 0 
1 11 -77 0 
1 18 -4 0 
1 -57 -4 0 
1 101 83 0 
1 -136 -44 0 
1 4 -109 0 
1 60 -118 0 
1 44 6 0 
1 -59 -20 0 
1 -124 -133 0 
1 -74 16 0 
1 78 -104 0 
1 56 25 0 
1 61 -9 0 
1 -112 140 0 
1 -59 -137 0 
1 105 -36 0 
1 25 -91 0 
1 139 29 0 
1 36 32 0 
1 -115 83 0 
1 -102 107 0 
1 86 -121 0 
1 143 89 0 
1 -123 -140 0 
1 -105 1 0 
1 16 -11 0 
1 -133 -112 0 
1 34 21 0 
1 -87 68 0 
1 4 61 0 
1 70 -18 0 
1 75 78 0 
1 75 -66 0 
1 -133 127 0 
1 63 -142 0 
1 -5 -107 0 
1 -60 -13 0 
1 -65 -135 0 
1 86 -116 0 
1 27 109 0 
1 7 80 0 
1 91 -96 0 
1 109 38 0 
1 -111 95 0 
1 98 -69 0 
1 -18 -93 0 
1 116 -86 0 
1 -128 105 0 
1 58 76 0 
1 -141 -108 0 
1 81 -2 0 
1 90 79 0 
1 71 69 0 
1 -90 35 0 
1 -22 -123 0 
1 -80 139 0 
